/*********************************************
 * OPL 12.5 Data
 * Author: teaston
 * Creation Date: Apr 17, 2014 at 4:01:10 PM
 *********************************************/
cover = [[0,0,0,0,0,0,0,0,0,0,0,0,0,0,0,0,0,0,0,0,0,0,0,0,0,0,0,0,0,0],
         [0,0,0,0,0,0,0,0,0,0,0,0,0,0,0,0,0,0,0,0,0,0,0,0,0,0,0,0,0,0],
         [0,0,0,0,0,0,0,0,0,0,0,0,0,0,0,0,0,0,0,0,0,0,0,0,0,0,0,0,0,0]];

coverrhs =[1000,1000,1000];